VER
3

OBJSENSE
MIN

PSDVAR
1
3

VAR
3 1
Q               3

CON
6 4
L-              1
L-              1
L=              1
# group of added constraints
L-              3

OBJFCOORD
5
0               0        0    2
0               1        0    1
0               1        1    2
0               2        1    1
0               2        2    2

OBJACOORD
1
0           1

FCOORD
9
1               0        0        0    1
1               0        1        1    1
1               0        2        2    1
2               0        0        0    1
2               0        1        0    1
2               0        2        0    1
2               0        1        1    1
2               0        2        1    1
2               0        2        2    1

ACOORD
8
0               0    1
0               1    1
0               2    1
2               1    1
2               2    1
3               0    -1
4               1    -1
5               2    -1

BCOORD
3
0           -0.90000000000000002
1           -0.80000000000000004
2           -0.59999999999999998
